Reading model...
...model read.
creating competitive generators file...
...competitive generators recorded.
Loading data...
.. real-time data read.
Compiling instance...
...instance created.
Creating Offer Mitigation (model will solve as dispatch if TRUE)...
...storage offer mitigation file created
Converting model to MPEC...
...converted
NOTE: initial MIP solve with only storage competitive to get feasible solution
Solving...

Welcome to IBM(R) ILOG(R) CPLEX(R) Interactive Optimizer 12.10.0.0
  with Simplex, Mixed Integer & Barrier Optimizers
5725-A06 5725-A29 5724-Y48 5724-Y49 5724-Y54 5724-Y55 5655-Y21
Copyright IBM Corp. 1988, 2019.  All Rights Reserved.

Type 'help' for a list of available commands.
Type 'help' followed by a command name for more
information on commands.

CPLEX> Logfile 'cplex.log' closed.
Logfile 'C:\Users\wenmi\Desktop\competitiveMPEC\logs\tmp6aohafa5.cplex.log' open.
CPLEX> New value for parallel optimization mode: -1
CPLEX> New value for mixed integer optimality gap tolerance: 0.05
CPLEX> New value for deterministic time limit in ticks: 100000
CPLEX> Problem 'C:\Users\wenmi\Desktop\competitiveMPEC\logs\tmpzxbj2d_p.pyomo.lp' read.
Read time = 0.33 sec. (27.41 ticks)
CPLEX> Problem name         : C:\Users\wenmi\Desktop\competitiveMPEC\logs\tmpzxbj2d_p.pyomo.lp
Objective sense      : Maximize
Variables            :  107779  [Nneg: 1,  Box: 44054,  Free: 8928,
                                 Binary: 54796]
Objective nonzeros   :   17666
Linear constraints   :  246995  [Less: 82866,  Greater: 118424,  Equal: 45705]
  Nonzeros           :  580973
  RHS nonzeros       :  134735

Variables            : Min LB: -5000.000        Max UB: 1000000.       
Objective nonzeros   : Min   : 0.008333333      Max   : 2500.000       
Linear constraints   :
  Nonzeros           : Min   : 0.008333333      Max   : 1000000.       
  RHS nonzeros       : Min   : 0.008333333      Max   : 1000000.       
CPLEX> Version identifier: 12.10.0.0 | 2019-11-26 | 843d4de2ae
CPXPARAM_Parallel                                -1
CPXPARAM_DetTimeLimit                            100000
CPXPARAM_MIP_Tolerances_MIPGap                   0.050000000000000003
Tried aggregator 3 times.
MIP Presolve eliminated 180960 rows and 40792 columns.
MIP Presolve added 6192 rows and 0 columns.
MIP Presolve modified 49158 coefficients.
Aggregator did 25787 substitutions.
Reduced MIP has 46440 rows, 39680 columns, and 128592 nonzeros.
Reduced MIP has 15603 binaries, 0 generals, 0 SOSs, and 0 indicators.
Presolve time = 0.33 sec. (335.16 ticks)
Probing fixed 750 vars, tightened 7228 bounds.
Probing time = 0.08 sec. (14.91 ticks)
Tried aggregator 2 times.
Detecting symmetries...
MIP Presolve eliminated 1691 rows and 1500 columns.
MIP Presolve modified 5630 coefficients.
Aggregator did 96 substitutions.
Reduced MIP has 44653 rows, 38084 columns, and 123422 nonzeros.
Reduced MIP has 14853 binaries, 0 generals, 0 SOSs, and 0 indicators.
Presolve time = 0.13 sec. (213.11 ticks)
Probing fixed 0 vars, tightened 279 bounds.
Probing time = 0.16 sec. (19.40 ticks)
Clique table members: 82701.
MIP emphasis: balance optimality and feasibility.
MIP search method: dynamic search.
Parallel mode: opportunistic, using up to 16 threads.
Root relaxation solution time = 0.70 sec. (2026.50 ticks)

        Nodes                                         Cuts/
   Node  Left     Objective  IInf  Best Integer    Best Bound    ItCnt     Gap

      0     0        0.0000   298                      0.0000    10939         
*     0+    0                            0.0000        0.0000             0.00%

Root node processing (before b&c):
  Real time             =    1.77 sec. (3041.85 ticks)
Parallel b&c, 16 threads:
  Real time             =    0.00 sec. (0.00 ticks)
  Sync time (average)   =    0.00 sec.
  Wait time (average)   =    0.00 sec.
                          ------------
Total (root+branch&cut) =    1.77 sec. (3041.85 ticks)

Solution pool: 1 solution saved.

MIP - Integer optimal, tolerance (0.05/1e-06):  Objective =  4.4174157665e-09
Current MIP best bound =  5.6227378309e-09 (gap = 1.20532e-09, 0.00%)
Solution time =    1.77 sec.  Iterations = 10939  Nodes = 0 (1)
Deterministic time = 3042.15 ticks  (1722.62 ticks/sec)

CPLEX> Incumbent solution written to file 'C:\Users\wenmi\Desktop\competitiveMPEC\logs\tmp9fss30g7.cplex.sol'.
CPLEX> NOTE: no warmstart specified for MIP iteration, default behavior is true
NOTE: resolving with all competitive generators using storage-only solution to warmstart
Solving...

Welcome to IBM(R) ILOG(R) CPLEX(R) Interactive Optimizer 12.10.0.0
  with Simplex, Mixed Integer & Barrier Optimizers
5725-A06 5725-A29 5724-Y48 5724-Y49 5724-Y54 5724-Y55 5655-Y21
Copyright IBM Corp. 1988, 2019.  All Rights Reserved.

Type 'help' for a list of available commands.
Type 'help' followed by a command name for more
information on commands.

CPLEX> Logfile 'cplex.log' closed.
Logfile 'C:\Users\wenmi\Desktop\competitiveMPEC\logs\tmpf4gh3z34.cplex.log' open.
CPLEX> New value for parallel optimization mode: -1
CPLEX> New value for mixed integer optimality gap tolerance: 0.05
CPLEX> New value for deterministic time limit in ticks: 100000
CPLEX> Problem 'C:\Users\wenmi\Desktop\competitiveMPEC\logs\tmpndj41vag.pyomo.lp' read.
Read time = 0.33 sec. (27.45 ticks)
CPLEX> MIP start file 'C:\Users\wenmi\Desktop\competitiveMPEC\logs\tmpjqtek_mq.cplex.mst' read.
CPLEX> Problem name         : C:\Users\wenmi\Desktop\competitiveMPEC\logs\tmpndj41vag.pyomo.lp
Objective sense      : Maximize
Variables            :  109219  [Nneg: 1,  Box: 45494,  Free: 8928,
                                 Binary: 54796]
Objective nonzeros   :   19058
Linear constraints   :  246995  [Less: 82866,  Greater: 118424,  Equal: 45705]
  Nonzeros           :  580973
  RHS nonzeros       :  134735

Variables            : Min LB: -5000.000        Max UB: 1000000.       
Objective nonzeros   : Min   : 0.008333333      Max   : 2500.000       
Linear constraints   :
  Nonzeros           : Min   : 0.008333333      Max   : 1000000.       
  RHS nonzeros       : Min   : 0.008333333      Max   : 1000000.       
CPLEX> Version identifier: 12.10.0.0 | 2019-11-26 | 843d4de2ae
CPXPARAM_Parallel                                -1
CPXPARAM_DetTimeLimit                            100000
CPXPARAM_MIP_Tolerances_MIPGap                   0.050000000000000003
Warning:  No solution found from 1 MIP starts.
Retaining values of one MIP start for possible repair.
Tried aggregator 3 times.
MIP Presolve eliminated 180960 rows and 42232 columns.
MIP Presolve added 6192 rows and 0 columns.
MIP Presolve modified 49158 coefficients.
Aggregator did 25787 substitutions.
Reduced MIP has 46440 rows, 39680 columns, and 128592 nonzeros.
Reduced MIP has 15603 binaries, 0 generals, 0 SOSs, and 0 indicators.
Presolve time = 0.34 sec. (335.89 ticks)
Probing fixed 750 vars, tightened 7228 bounds.
Probing time = 0.08 sec. (14.91 ticks)
Tried aggregator 2 times.
Detecting symmetries...
MIP Presolve eliminated 1691 rows and 1500 columns.
MIP Presolve modified 5630 coefficients.
Aggregator did 96 substitutions.
Reduced MIP has 44653 rows, 38084 columns, and 123422 nonzeros.
Reduced MIP has 14853 binaries, 0 generals, 0 SOSs, and 0 indicators.
Presolve time = 0.14 sec. (213.12 ticks)
Probing fixed 0 vars, tightened 279 bounds.
Probing time = 0.16 sec. (19.40 ticks)
Clique table members: 82701.
MIP emphasis: balance optimality and feasibility.
MIP search method: dynamic search.
Parallel mode: opportunistic, using up to 16 threads.
Root relaxation solution time = 0.53 sec. (530.64 ticks)

        Nodes                                         Cuts/
   Node  Left     Objective  IInf  Best Integer    Best Bound    ItCnt     Gap

      0     0    29825.5823   506                  29825.5823       41         
*     0+    0                        29640.8765    29825.5823             0.62%

Flow cuts applied:  217

Root node processing (before b&c):
  Real time             =    2.22 sec. (2161.85 ticks)
Parallel b&c, 16 threads:
  Real time             =    0.00 sec. (0.00 ticks)
  Sync time (average)   =    0.00 sec.
  Wait time (average)   =    0.00 sec.
                          ------------
Total (root+branch&cut) =    2.22 sec. (2161.85 ticks)

Solution pool: 1 solution saved.

MIP - Integer optimal, tolerance (0.05/1e-06):  Objective =  2.9640876526e+04
Current MIP best bound =  2.9825582295e+04 (gap = 184.706, 0.62%)
Solution time =    2.25 sec.  Iterations = 318  Nodes = 0 (1)
Deterministic time = 2162.17 ticks  (960.96 ticks/sec)

CPLEX> Incumbent solution written to file 'C:\Users\wenmi\Desktop\competitiveMPEC\logs\tmp_vo3c7nt.cplex.sol'.
CPLEX> Exporting results... 
